PARAMETER_FILE = even/even_complete_graph_new/par/random124.par
PROBLEM_FILE = even/even_complete_graph_new/mat/random124.tsp
Successes/Runs = 0/10
Cost.min = 851, Cost.avg = 851.00, Cost.max = 851
Gap.min = 0.0000%, Gap.avg = 0.0000%, Gap.max = 0.0000%
Trials.min = 1000, Trials.avg = 1000.0, Trials.max = 1000
Time.min = 0.74 sec., Time.avg = 1.07 sec., Time.max = 1.74 sec.
Time.total = 10.78 sec.
请按任意键继续. . . 
